benchmarks_vrp/CMT12/tsp_classic/CMT12_3.vrp
NAME: CMT12_3
TYPE: CVRP
COMMENT: 819.56 - Cluster Nr.3
DIMENSION: 14
CAPACITY: 200
EDGE_WEIGHT_TYPE: EUC_2D
NODE_COORD_TYPE: TWOD_COORDS
NODE_COORD_SECTION: 
7 25 52
2 23 55
10 40 50
12 25 50
11 23 52
13 30 50
4 28 55
9 20 50
8 25 55
1 20 55
3 28 52
5 35 66
14 30 52
6 35 69
DEPOT_SECTION: 
10
-1
DEMAND_SECTION: 
14 20
12 10
11 10
3 20
6 10
4 10
9 10
2 20
7 40
5 10
10 0
1 10
8 10
13 10
EOF
