benchmarks_vrp/CMT12/tsp_classic/CMT12_3.tour
NAME: CMT12_3 solution
TYPE: TOUR
TOUR_SECTION:
10 6 5 4 8 2 1 9 11 7 12 3 14 13 -1
-1
EOF